GGA = PS
LREAL = Auto
ENCUT = 800.0
ISMEAR = 1
SIGMA = 0.2
NELM = 200
EDIFF = 1e-06
IBRION = -1
LORBIT = 11
ISIF = 4
EDIFFG = -0.01
NSW = 0
NELMIN = 4
LPLANE = .TRUE.
NCORE = 8
LSCALU = .FALSE.
NSIM = 4
LDAU = .TRUE.
LDAUTYPE = 2
LDAUL = -1 -1 2
LDAUU = 0.0 0.0 3.0
LMAXMIX = 4
